clear

#==================================================================================Declaring all variables=================================================================================#

variable 		rho 		equal			0.6						#Packing density
variable 		T 		equal 	  	0.1						#Temperature of simulation
variable 		dt 		equal 	  	0.001	    #Timestep

variable		len		equal	    		20
variable		v_box		equal			(${len}*${len}*${len})	
			        
variable		a		equal 		2
variable		v_sp		equal			(1.3333)*(3.1416*$a*$a*$a)
variable 		V		equal			(${v_box}-${v_sp})
variable		N		equal			round($V*${rho})

variable 		eps11 	equal 		0.1				            #LJ_Parameter from problem statement
variable 		eps22 	equal 		1.0			            	#LJ_Parameter from problem statement	
variable 		eps12 	equal 		1.5				            #LJ_Parameter from problem statement
variable 		sig1 		equal 		4.0			              	#LJ_Parameter from problem statement
variable 		sig2 		equal 		1.0				            #LJ_Parameter from problem statement
variable		sig12		equal			0.5*(${sig1}+${sig2})			#scpLJ_Parameter geometricc mean

variable 		rc1 		equal 		2.5*${sig1}
variable 		rc2 		equal 		2.5*${sig2}
variable 		rc12 		equal 		2.5*${sig12}

variable 		in_steps	equal 		10000
variable 		eq_steps	equal 		${in_steps}*3
variable 		prd_steps  	equal 		${in_steps}*6
variable		mid		equal			${len}/2


#==================================================================================Setting up the simulation============================================================================#

units 		lj
dimension 		3
boundary 		p p p
atom_style 		atomic

region 		box 	block 0.0 ${len} 0.0 ${len} 0.0 ${len}				# Simulation box
region		a	sphere ${mid} ${mid} ${mid} 2.0 side out				# Region for smaller spheres

create_box 		2 	box

create_atoms 	1 	single 	${mid} ${mid}  ${mid} 
create_atoms 	2 	random 	$N	1284	a overlap 0.9				# Creation of atoms in simulation box

mass			1 	1.0
mass			2 	1.0

group			adsorbent type 1									#Grouping the two types of spheres
group     		adsorbate type 2

velocity 		adsorbate create ${T} 8728

pair_style 		lj/cut	2.5				
pair_coeff 		1 	1 	1 	${sig1}	${rc1}					# Initial setting up simulation. Adsorption absent 	
pair_coeff 		2 	2 	1 	${sig2}	${rc2}	
pair_coeff 		1 	2 	1 	${sig12}	${rc12}


fix 			pos  adsorbent setforce 	0.0 0.0 0.0 				# Fixing the sphere at the centre
neighbor		0.3 bin
neigh_modify	every 20 delay 0 check no	

#================================================================================Define initial simulation=================================================================================#

dump			1 	all 	custom 1000	dump1.lammpstrj id type x y z vx vy vz				# Dump file
dump_modify       1 sort id

thermo 		1000
thermo_style 	custom step	vol temp press pe etotal

timestep 		${dt}

fix 			1 	all 	nve
fix 			lang  adsorbate langevin $T $T 0.05 1827 
compute         	1 all rdf 100 1 2
fix               rdf_val_i all ave/time 1 1 10000 c_1[*] file tmp_adsor_initial.rdf mode vector	# RDF file

run			${in_steps} 
unfix			lang
unfix			1

pair_coeff 		1 	1 	${eps11} 	${sig1}	${rc1}	
pair_coeff 		2 	2 	${eps22} 	${sig2}	${rc2}	
pair_coeff 		1 	2 	${eps12} 	${sig12}	${rc12}

undump 1

minimize 		1.0e-4 1.0e-6 1000 10000

#================================================================================Define equilibration run==================================================================================#


fix 			2 all	nve

dump			2 	all 	custom 1000	dump2.lammpstrj id type x y z vx vy vz
dump_modify       2 sort id
thermo 		1000
thermo_style 	custom step	vol temp press pe etotal

compute         	2 all rdf 100 1 2
fix               rdf_val_f all ave/time 1 1 10000 c_2[*] file tmp_adsor_final.rdf mode vector

run			${eq_steps}

#========================================================================Production run as an extension of equilibration run===============================================================#

run			${prd_steps}

